c nIsolatedPIs 24
c maxPI 176
p cnf 645 1408
c gate 177 68 156 0
68 -177 0
156 -177 0
-68 -156 177 0
c gate 178 67 155 0
67 -178 0
155 -178 0
-67 -155 178 0
c gate 179 63 151 0
63 -179 0
151 -179 0
-63 -151 179 0
c gate 180 64 152 0
64 -180 0
152 -180 0
-64 -152 180 0
c gate 181 -179 -180 0
-179 -181 0
-180 -181 0
179 180 181 0
c gate 182 -64 -152 0
-64 -182 0
-152 -182 0
64 152 182 0
c gate 183 -181 -182 0
-181 -183 0
-182 -183 0
181 182 183 0
c gate 184 61 149 0
61 -184 0
149 -184 0
-61 -149 184 0
c gate 185 62 150 0
62 -185 0
150 -185 0
-62 -150 185 0
c gate 186 -184 -185 0
-184 -186 0
-185 -186 0
184 185 186 0
c gate 187 -62 -150 0
-62 -187 0
-150 -187 0
62 150 187 0
c gate 188 -186 -187 0
-186 -188 0
-187 -188 0
186 187 188 0
c gate 189 -60 -148 0
-60 -189 0
-148 -189 0
60 148 189 0
c gate 190 57 145 0
57 -190 0
145 -190 0
-57 -145 190 0
c gate 191 58 146 0
58 -191 0
146 -191 0
-58 -146 191 0
c gate 192 -190 -191 0
-190 -192 0
-191 -192 0
190 191 192 0
c gate 193 -58 -146 0
-58 -193 0
-146 -193 0
58 146 193 0
c gate 194 -59 -147 0
-59 -194 0
-147 -194 0
59 147 194 0
c gate 195 -193 -194 0
-193 -195 0
-194 -195 0
193 194 195 0
c gate 196 -192 195 0
-192 -196 0
195 -196 0
192 -195 196 0
c gate 197 60 148 0
60 -197 0
148 -197 0
-60 -148 197 0
c gate 198 59 147 0
59 -198 0
147 -198 0
-59 -147 198 0
c gate 199 -197 -198 0
-197 -199 0
-198 -199 0
197 198 199 0
c gate 200 -196 199 0
-196 -200 0
199 -200 0
196 -199 200 0
c gate 201 -189 -200 0
-189 -201 0
-200 -201 0
189 200 201 0
c gate 202 55 143 0
55 -202 0
143 -202 0
-55 -143 202 0
c gate 203 56 144 0
56 -203 0
144 -203 0
-56 -144 203 0
c gate 204 -202 -203 0
-202 -204 0
-203 -204 0
202 203 204 0
c gate 205 48 136 0
48 -205 0
136 -205 0
-48 -136 205 0
c gate 206 -48 -136 0
-48 -206 0
-136 -206 0
48 136 206 0
c gate 207 -47 -135 0
-47 -207 0
-135 -207 0
47 135 207 0
c gate 208 -206 -207 0
-206 -208 0
-207 -208 0
206 207 208 0
c gate 209 -46 -134 0
-46 -209 0
-134 -209 0
46 134 209 0
c gate 210 45 133 0
45 -210 0
133 -210 0
-45 -133 210 0
c gate 211 -44 -132 0
-44 -211 0
-132 -211 0
44 132 211 0
c gate 212 -45 -133 0
-45 -212 0
-133 -212 0
45 133 212 0
c gate 213 -211 -212 0
-211 -213 0
-212 -213 0
211 212 213 0
c gate 214 41 129 0
41 -214 0
129 -214 0
-41 -129 214 0
c gate 215 42 130 0
42 -215 0
130 -215 0
-42 -130 215 0
c gate 216 -214 -215 0
-214 -216 0
-215 -216 0
214 215 216 0
c gate 217 -42 -130 0
-42 -217 0
-130 -217 0
42 130 217 0
c gate 218 -43 -131 0
-43 -218 0
-131 -218 0
43 131 218 0
c gate 219 -217 -218 0
-217 -219 0
-218 -219 0
217 218 219 0
c gate 220 -216 219 0
-216 -220 0
219 -220 0
216 -219 220 0
c gate 221 44 132 0
44 -221 0
132 -221 0
-44 -132 221 0
c gate 222 43 131 0
43 -222 0
131 -222 0
-43 -131 222 0
c gate 223 -221 -222 0
-221 -223 0
-222 -223 0
221 222 223 0
c gate 224 -220 223 0
-220 -224 0
223 -224 0
220 -223 224 0
c gate 225 213 -224 0
213 -225 0
-224 -225 0
-213 224 225 0
c gate 226 -210 -225 0
-210 -226 0
-225 -226 0
210 225 226 0
c gate 227 -209 -226 0
-209 -227 0
-226 -227 0
209 226 227 0
c gate 228 47 135 0
47 -228 0
135 -228 0
-47 -135 228 0
c gate 229 46 134 0
46 -229 0
134 -229 0
-46 -134 229 0
c gate 230 -228 -229 0
-228 -230 0
-229 -230 0
228 229 230 0
c gate 231 -227 230 0
-227 -231 0
230 -231 0
227 -230 231 0
c gate 232 31 119 0
31 -232 0
119 -232 0
-31 -119 232 0
c gate 233 -30 -118 0
-30 -233 0
-118 -233 0
30 118 233 0
c gate 234 -232 -233 0
-232 -234 0
-233 -234 0
232 233 234 0
c gate 235 32 120 0
32 -235 0
120 -235 0
-32 -120 235 0
c gate 236 -29 -117 0
-29 -236 0
-117 -236 0
29 117 236 0
c gate 237 -235 -236 0
-235 -237 0
-236 -237 0
235 236 237 0
c gate 238 234 237 0
234 -238 0
237 -238 0
-234 -237 238 0
c gate 239 -32 -120 0
-32 -239 0
-120 -239 0
32 120 239 0
c gate 240 -31 -119 0
-31 -240 0
-119 -240 0
31 119 240 0
c gate 241 -239 -240 0
-239 -241 0
-240 -241 0
239 240 241 0
c gate 242 30 118 0
30 -242 0
118 -242 0
-30 -118 242 0
c gate 243 29 117 0
29 -243 0
117 -243 0
-29 -117 243 0
c gate 244 -242 -243 0
-242 -244 0
-243 -244 0
242 243 244 0
c gate 245 241 244 0
241 -245 0
244 -245 0
-241 -244 245 0
c gate 246 238 245 0
238 -246 0
245 -246 0
-238 -245 246 0
c gate 247 -24 -112 0
-24 -247 0
-112 -247 0
24 112 247 0
c gate 248 23 111 0
23 -248 0
111 -248 0
-23 -111 248 0
c gate 249 24 112 0
24 -249 0
112 -249 0
-24 -112 249 0
c gate 250 -248 -249 0
-248 -250 0
-249 -250 0
248 249 250 0
c gate 251 -22 -110 0
-22 -251 0
-110 -251 0
22 110 251 0
c gate 252 -23 -111 0
-23 -252 0
-111 -252 0
23 111 252 0
c gate 253 -251 -252 0
-251 -253 0
-252 -253 0
251 252 253 0
c gate 254 21 109 0
21 -254 0
109 -254 0
-21 -109 254 0
c gate 255 22 110 0
22 -255 0
110 -255 0
-22 -110 255 0
c gate 256 -254 -255 0
-254 -256 0
-255 -256 0
254 255 256 0
c gate 257 -20 -108 0
-20 -257 0
-108 -257 0
20 108 257 0
c gate 258 -21 -109 0
-21 -258 0
-109 -258 0
21 109 258 0
c gate 259 -257 -258 0
-257 -259 0
-258 -259 0
257 258 259 0
c gate 260 19 107 0
19 -260 0
107 -260 0
-19 -107 260 0
c gate 261 20 108 0
20 -261 0
108 -261 0
-20 -108 261 0
c gate 262 -260 -261 0
-260 -262 0
-261 -262 0
260 261 262 0
c gate 263 17 105 0
17 -263 0
105 -263 0
-17 -105 263 0
c gate 264 -18 -106 0
-18 -264 0
-106 -264 0
18 106 264 0
c gate 265 18 106 0
18 -265 0
106 -265 0
-18 -106 265 0
c gate 266 -264 -265 0
-264 -266 0
-265 -266 0
264 265 266 0
c gate 267 -263 266 0
-263 -267 0
266 -267 0
263 -266 267 0
c gate 268 -19 -107 0
-19 -268 0
-107 -268 0
19 107 268 0
c gate 269 -264 -268 0
-264 -269 0
-268 -269 0
264 268 269 0
c gate 270 -267 269 0
-267 -270 0
269 -270 0
267 -269 270 0
c gate 271 262 -270 0
262 -271 0
-270 -271 0
-262 270 271 0
c gate 272 259 -271 0
259 -272 0
-271 -272 0
-259 271 272 0
c gate 273 256 -272 0
256 -273 0
-272 -273 0
-256 272 273 0
c gate 274 253 -273 0
253 -274 0
-273 -274 0
-253 273 274 0
c gate 275 250 -274 0
250 -275 0
-274 -275 0
-250 274 275 0
c gate 276 -247 -275 0
-247 -276 0
-275 -276 0
247 275 276 0
c gate 277 26 114 0
26 -277 0
114 -277 0
-26 -114 277 0
c gate 278 27 115 0
27 -278 0
115 -278 0
-27 -115 278 0
c gate 279 25 113 0
25 -279 0
113 -279 0
-25 -113 279 0
c gate 280 -278 -279 0
-278 -280 0
-279 -280 0
278 279 280 0
c gate 281 -277 280 0
-277 -281 0
280 -281 0
277 -280 281 0
c gate 282 -26 -114 0
-26 -282 0
-114 -282 0
26 114 282 0
c gate 283 -27 -115 0
-27 -283 0
-115 -283 0
27 115 283 0
c gate 284 -282 -283 0
-282 -284 0
-283 -284 0
282 283 284 0
c gate 285 -28 -116 0
-28 -285 0
-116 -285 0
28 116 285 0
c gate 286 -25 -113 0
-25 -286 0
-113 -286 0
25 113 286 0
c gate 287 28 116 0
28 -287 0
116 -287 0
-28 -116 287 0
c gate 288 -286 -287 0
-286 -288 0
-287 -288 0
286 287 288 0
c gate 289 -285 288 0
-285 -289 0
288 -289 0
285 -288 289 0
c gate 290 284 289 0
284 -290 0
289 -290 0
-284 -289 290 0
c gate 291 281 290 0
281 -291 0
290 -291 0
-281 -290 291 0
c gate 292 276 291 0
276 -292 0
291 -292 0
-276 -291 292 0
c gate 293 -278 -284 0
-278 -293 0
-284 -293 0
278 284 293 0
c gate 294 -281 -285 0
-281 -294 0
-285 -294 0
281 285 294 0
c gate 295 -293 294 0
-293 -295 0
294 -295 0
293 -294 295 0
c gate 296 -287 -295 0
-287 -296 0
-295 -296 0
287 295 296 0
c gate 297 -292 296 0
-292 -297 0
296 -297 0
292 -296 297 0
c gate 298 246 -297 0
246 -298 0
-297 -298 0
-246 297 298 0
c gate 299 -233 -244 0
-233 -299 0
-244 -299 0
233 244 299 0
c gate 300 -232 -299 0
-232 -300 0
-299 -300 0
232 299 300 0
c gate 301 241 -300 0
241 -301 0
-300 -301 0
-241 300 301 0
c gate 302 -235 -301 0
-235 -302 0
-301 -302 0
235 301 302 0
c gate 303 -298 302 0
-298 -303 0
302 -303 0
298 -302 303 0
c gate 304 15 103 0
15 -304 0
103 -304 0
-15 -103 304 0
c gate 305 16 104 0
16 -305 0
104 -305 0
-16 -104 305 0
c gate 306 -304 -305 0
-304 -306 0
-305 -306 0
304 305 306 0
c gate 307 -14 -102 0
-14 -307 0
-102 -307 0
14 102 307 0
c gate 308 -15 -103 0
-15 -308 0
-103 -308 0
15 103 308 0
c gate 309 -307 -308 0
-307 -309 0
-308 -309 0
307 308 309 0
c gate 310 -13 -101 0
-13 -310 0
-101 -310 0
13 101 310 0
c gate 311 12 100 0
12 -311 0
100 -311 0
-12 -100 311 0
c gate 312 -12 -100 0
-12 -312 0
-100 -312 0
12 100 312 0
c gate 313 11 99 0
11 -313 0
99 -313 0
-11 -99 313 0
c gate 314 -312 313 0
-312 -314 0
313 -314 0
312 -313 314 0
c gate 315 -311 -314 0
-311 -315 0
-314 -315 0
311 314 315 0
c gate 316 -10 -98 0
-10 -316 0
-98 -316 0
10 98 316 0
c gate 317 -11 -99 0
-11 -317 0
-99 -317 0
11 99 317 0
c gate 318 -312 -317 0
-312 -318 0
-317 -318 0
312 317 318 0
c gate 319 -316 318 0
-316 -319 0
318 -319 0
316 -318 319 0
c gate 320 315 319 0
315 -320 0
319 -320 0
-315 -319 320 0
c gate 321 10 98 0
10 -321 0
98 -321 0
-10 -98 321 0
c gate 322 9 97 0
9 -322 0
97 -322 0
-9 -97 322 0
c gate 323 -316 -322 0
-316 -323 0
-322 -323 0
316 322 323 0
c gate 324 -321 323 0
-321 -324 0
323 -324 0
321 -323 324 0
c gate 325 320 -324 0
320 -325 0
-324 -325 0
-320 324 325 0
c gate 326 315 -325 0
315 -326 0
-325 -326 0
-315 325 326 0
c gate 327 -310 -326 0
-310 -327 0
-326 -327 0
310 326 327 0
c gate 328 14 102 0
14 -328 0
102 -328 0
-14 -102 328 0
c gate 329 13 101 0
13 -329 0
101 -329 0
-13 -101 329 0
c gate 330 -328 -329 0
-328 -330 0
-329 -330 0
328 329 330 0
c gate 331 -327 330 0
-327 -331 0
330 -331 0
327 -330 331 0
c gate 332 2 90 0
2 -332 0
90 -332 0
-2 -90 332 0
c gate 333 1 89 0
1 -333 0
89 -333 0
-1 -89 333 0
c gate 334 -332 -333 0
-332 -334 0
-333 -334 0
332 333 334 0
c gate 335 -3 -91 0
-3 -335 0
-91 -335 0
3 91 335 0
c gate 336 -2 -90 0
-2 -336 0
-90 -336 0
2 90 336 0
c gate 337 -335 -336 0
-335 -337 0
-336 -337 0
335 336 337 0
c gate 338 -334 337 0
-334 -338 0
337 -338 0
334 -337 338 0
c gate 339 4 92 0
4 -339 0
92 -339 0
-4 -92 339 0
c gate 340 3 91 0
3 -340 0
91 -340 0
-3 -91 340 0
c gate 341 -339 -340 0
-339 -341 0
-340 -341 0
339 340 341 0
c gate 342 -338 341 0
-338 -342 0
341 -342 0
338 -341 342 0
c gate 343 -4 -92 0
-4 -343 0
-92 -343 0
4 92 343 0
c gate 344 -5 -93 0
-5 -344 0
-93 -344 0
5 93 344 0
c gate 345 -343 -344 0
-343 -345 0
-344 -345 0
343 344 345 0
c gate 346 -342 345 0
-342 -346 0
345 -346 0
342 -345 346 0
c gate 347 6 94 0
6 -347 0
94 -347 0
-6 -94 347 0
c gate 348 5 93 0
5 -348 0
93 -348 0
-5 -93 348 0
c gate 349 -347 -348 0
-347 -349 0
-348 -349 0
347 348 349 0
c gate 350 -346 349 0
-346 -350 0
349 -350 0
346 -349 350 0
c gate 351 -8 -96 0
-8 -351 0
-96 -351 0
8 96 351 0
c gate 352 7 95 0
7 -352 0
95 -352 0
-7 -95 352 0
c gate 353 -351 -352 0
-351 -353 0
-352 -353 0
351 352 353 0
c gate 354 -6 -94 0
-6 -354 0
-94 -354 0
6 94 354 0
c gate 355 -7 -95 0
-7 -355 0
-95 -355 0
7 95 355 0
c gate 356 -354 -355 0
-354 -356 0
-355 -356 0
354 355 356 0
c gate 357 353 356 0
353 -357 0
356 -357 0
-353 -356 357 0
c gate 358 -350 357 0
-350 -358 0
357 -358 0
350 -357 358 0
c gate 359 -351 352 0
-351 -359 0
352 -359 0
351 -352 359 0
c gate 360 8 96 0
8 -360 0
96 -360 0
-8 -96 360 0
c gate 361 -359 -360 0
-359 -361 0
-360 -361 0
359 360 361 0
c gate 362 -358 361 0
-358 -362 0
361 -362 0
358 -361 362 0
c gate 363 -9 -97 0
-9 -363 0
-97 -363 0
9 97 363 0
c gate 364 -310 -363 0
-310 -364 0
-363 -364 0
310 363 364 0
c gate 365 324 364 0
324 -365 0
364 -365 0
-324 -364 365 0
c gate 366 320 365 0
320 -366 0
365 -366 0
-320 -365 366 0
c gate 367 -362 366 0
-362 -367 0
366 -367 0
362 -366 367 0
c gate 368 331 -367 0
331 -368 0
-367 -368 0
-331 367 368 0
c gate 369 309 -368 0
309 -369 0
-368 -369 0
-309 368 369 0
c gate 370 306 -369 0
306 -370 0
-369 -370 0
-306 369 370 0
c gate 371 -17 -105 0
-17 -371 0
-105 -371 0
17 105 371 0
c gate 372 -16 -104 0
-16 -372 0
-104 -372 0
16 104 372 0
c gate 373 -263 -372 0
-263 -373 0
-372 -373 0
263 372 373 0
c gate 374 -371 373 0
-371 -374 0
373 -374 0
371 -373 374 0
c gate 375 -370 374 0
-370 -375 0
374 -375 0
370 -374 375 0
c gate 376 259 262 0
259 -376 0
262 -376 0
-259 -262 376 0
c gate 377 266 376 0
266 -377 0
376 -377 0
-266 -376 377 0
c gate 378 -247 -268 0
-247 -378 0
-268 -378 0
247 268 378 0
c gate 379 250 378 0
250 -379 0
378 -379 0
-250 -378 379 0
c gate 380 253 256 0
253 -380 0
256 -380 0
-253 -256 380 0
c gate 381 379 380 0
379 -381 0
380 -381 0
-379 -380 381 0
c gate 382 377 381 0
377 -382 0
381 -382 0
-377 -381 382 0
c gate 383 246 291 0
246 -383 0
291 -383 0
-246 -291 383 0
c gate 384 382 383 0
382 -384 0
383 -384 0
-382 -383 384 0
c gate 385 375 384 0
375 -385 0
384 -385 0
-375 -384 385 0
c gate 386 303 -385 0
303 -386 0
-385 -386 0
-303 385 386 0
c gate 387 33 121 0
33 -387 0
121 -387 0
-33 -121 387 0
c gate 388 34 122 0
34 -388 0
122 -388 0
-34 -122 388 0
c gate 389 -387 -388 0
-387 -389 0
-388 -389 0
387 388 389 0
c gate 390 -35 -123 0
-35 -390 0
-123 -390 0
35 123 390 0
c gate 391 -34 -122 0
-34 -391 0
-122 -391 0
34 122 391 0
c gate 392 -390 -391 0
-390 -392 0
-391 -392 0
390 391 392 0
c gate 393 -33 -121 0
-33 -393 0
-121 -393 0
33 121 393 0
c gate 394 392 -393 0
392 -394 0
-393 -394 0
-392 393 394 0
c gate 395 389 394 0
389 -395 0
394 -395 0
-389 -394 395 0
c gate 396 -386 395 0
-386 -396 0
395 -396 0
386 -395 396 0
c gate 397 -389 392 0
-389 -397 0
392 -397 0
389 -392 397 0
c gate 398 36 124 0
36 -398 0
124 -398 0
-36 -124 398 0
c gate 399 35 123 0
35 -399 0
123 -399 0
-35 -123 399 0
c gate 400 -398 -399 0
-398 -400 0
-399 -400 0
398 399 400 0
c gate 401 -397 400 0
-397 -401 0
400 -401 0
397 -400 401 0
c gate 402 -396 401 0
-396 -402 0
401 -402 0
396 -401 402 0
c gate 403 -38 -126 0
-38 -403 0
-126 -403 0
38 126 403 0
c gate 404 -39 -127 0
-39 -404 0
-127 -404 0
39 127 404 0
c gate 405 -403 -404 0
-403 -405 0
-404 -405 0
403 404 405 0
c gate 406 -36 -124 0
-36 -406 0
-124 -406 0
36 124 406 0
c gate 407 -37 -125 0
-37 -407 0
-125 -407 0
37 125 407 0
c gate 408 -406 -407 0
-406 -408 0
-407 -408 0
406 407 408 0
c gate 409 405 408 0
405 -409 0
408 -409 0
-405 -408 409 0
c gate 410 -402 409 0
-402 -410 0
409 -410 0
402 -409 410 0
c gate 411 37 125 0
37 -411 0
125 -411 0
-37 -125 411 0
c gate 412 38 126 0
38 -412 0
126 -412 0
-38 -126 412 0
c gate 413 -411 -412 0
-411 -413 0
-412 -413 0
411 412 413 0
c gate 414 405 -413 0
405 -414 0
-413 -414 0
-405 413 414 0
c gate 415 39 127 0
39 -415 0
127 -415 0
-39 -127 415 0
c gate 416 40 128 0
40 -416 0
128 -416 0
-40 -128 416 0
c gate 417 -415 -416 0
-415 -417 0
-416 -417 0
415 416 417 0
c gate 418 -414 417 0
-414 -418 0
417 -418 0
414 -417 418 0
c gate 419 -410 418 0
-410 -419 0
418 -419 0
410 -418 419 0
c gate 420 -41 -129 0
-41 -420 0
-129 -420 0
41 129 420 0
c gate 421 -40 -128 0
-40 -421 0
-128 -421 0
40 128 421 0
c gate 422 -209 -421 0
-209 -422 0
-421 -422 0
209 421 422 0
c gate 423 -420 422 0
-420 -423 0
422 -423 0
420 -422 423 0
c gate 424 213 219 0
213 -424 0
219 -424 0
-213 -219 424 0
c gate 425 423 424 0
423 -425 0
424 -425 0
-423 -424 425 0
c gate 426 224 425 0
224 -426 0
425 -426 0
-224 -425 426 0
c gate 427 -419 426 0
-419 -427 0
426 -427 0
419 -426 427 0
c gate 428 231 -427 0
231 -428 0
-427 -428 0
-231 427 428 0
c gate 429 208 -428 0
208 -429 0
-428 -429 0
-208 428 429 0
c gate 430 -205 -429 0
-205 -430 0
-429 -430 0
205 429 430 0
c gate 431 51 139 0
51 -431 0
139 -431 0
-51 -139 431 0
c gate 432 52 140 0
52 -432 0
140 -432 0
-52 -140 432 0
c gate 433 -431 -432 0
-431 -433 0
-432 -433 0
431 432 433 0
c gate 434 -51 -139 0
-51 -434 0
-139 -434 0
51 139 434 0
c gate 435 -52 -140 0
-52 -435 0
-140 -435 0
52 140 435 0
c gate 436 -434 -435 0
-434 -436 0
-435 -436 0
434 435 436 0
c gate 437 433 436 0
433 -437 0
436 -437 0
-433 -436 437 0
c gate 438 49 137 0
49 -438 0
137 -438 0
-49 -137 438 0
c gate 439 50 138 0
50 -439 0
138 -439 0
-50 -138 439 0
c gate 440 -438 -439 0
-438 -440 0
-439 -440 0
438 439 440 0
c gate 441 -49 -137 0
-49 -441 0
-137 -441 0
49 137 441 0
c gate 442 -53 -141 0
-53 -442 0
-141 -442 0
53 141 442 0
c gate 443 -50 -138 0
-50 -443 0
-138 -443 0
50 138 443 0
c gate 444 -442 -443 0
-442 -444 0
-443 -444 0
442 443 444 0
c gate 445 -441 444 0
-441 -445 0
444 -445 0
441 -444 445 0
c gate 446 440 445 0
440 -446 0
445 -446 0
-440 -445 446 0
c gate 447 437 446 0
437 -447 0
446 -447 0
-437 -446 447 0
c gate 448 -430 447 0
-430 -448 0
447 -448 0
430 -447 448 0
c gate 449 -433 -435 0
-433 -449 0
-435 -449 0
433 435 449 0
c gate 450 -440 -443 0
-440 -450 0
-443 -450 0
440 443 450 0
c gate 451 437 450 0
437 -451 0
450 -451 0
-437 -450 451 0
c gate 452 -449 -451 0
-449 -452 0
-451 -452 0
449 451 452 0
c gate 453 -442 -452 0
-442 -453 0
-452 -453 0
442 452 453 0
c gate 454 54 142 0
54 -454 0
142 -454 0
-54 -142 454 0
c gate 455 53 141 0
53 -455 0
141 -455 0
-53 -141 455 0
c gate 456 -454 -455 0
-454 -456 0
-455 -456 0
454 455 456 0
c gate 457 -453 456 0
-453 -457 0
456 -457 0
453 -456 457 0
c gate 458 -448 457 0
-448 -458 0
457 -458 0
448 -457 458 0
c gate 459 -55 -143 0
-55 -459 0
-143 -459 0
55 143 459 0
c gate 460 -54 -142 0
-54 -460 0
-142 -460 0
54 142 460 0
c gate 461 -459 -460 0
-459 -461 0
-460 -461 0
459 460 461 0
c gate 462 -458 461 0
-458 -462 0
461 -462 0
458 -461 462 0
c gate 463 204 -462 0
204 -463 0
-462 -463 0
-204 462 463 0
c gate 464 -56 -144 0
-56 -464 0
-144 -464 0
56 144 464 0
c gate 465 -57 -145 0
-57 -465 0
-145 -465 0
57 145 465 0
c gate 466 -189 -465 0
-189 -466 0
-465 -466 0
189 465 466 0
c gate 467 -464 466 0
-464 -467 0
466 -467 0
464 -466 467 0
c gate 468 195 467 0
195 -468 0
467 -468 0
-195 -467 468 0
c gate 469 200 468 0
200 -469 0
468 -469 0
-200 -468 469 0
c gate 470 -463 469 0
-463 -470 0
469 -470 0
463 -469 470 0
c gate 471 -201 -470 0
-201 -471 0
-470 -471 0
201 470 471 0
c gate 472 -61 -149 0
-61 -472 0
-149 -472 0
61 149 472 0
c gate 473 -187 -472 0
-187 -473 0
-472 -473 0
187 472 473 0
c gate 474 186 473 0
186 -474 0
473 -474 0
-186 -473 474 0
c gate 475 -471 474 0
-471 -475 0
474 -475 0
471 -474 475 0
c gate 476 -188 -475 0
-188 -476 0
-475 -476 0
188 475 476 0
c gate 477 -63 -151 0
-63 -477 0
-151 -477 0
63 151 477 0
c gate 478 -182 -477 0
-182 -478 0
-477 -478 0
182 477 478 0
c gate 479 181 478 0
181 -479 0
478 -479 0
-181 -478 479 0
c gate 480 -476 479 0
-476 -480 0
479 -480 0
476 -479 480 0
c gate 481 -183 -480 0
-183 -481 0
-480 -481 0
183 480 481 0
c gate 482 -66 -154 0
-66 -482 0
-154 -482 0
66 154 482 0
c gate 483 -65 -153 0
-65 -483 0
-153 -483 0
65 153 483 0
c gate 484 -482 -483 0
-482 -484 0
-483 -484 0
482 483 484 0
c gate 485 -481 484 0
-481 -485 0
484 -485 0
481 -484 485 0
c gate 486 65 153 0
65 -486 0
153 -486 0
-65 -153 486 0
c gate 487 66 154 0
66 -487 0
154 -487 0
-66 -154 487 0
c gate 488 -486 -487 0
-486 -488 0
-487 -488 0
486 487 488 0
c gate 489 -482 -488 0
-482 -489 0
-488 -489 0
482 488 489 0
c gate 490 -485 -489 0
-485 -490 0
-489 -490 0
485 489 490 0
c gate 491 -67 -155 0
-67 -491 0
-155 -491 0
67 155 491 0
c gate 492 -177 -491 0
-177 -492 0
-491 -492 0
177 491 492 0
c gate 493 -490 492 0
-490 -493 0
492 -493 0
490 -492 493 0
c gate 494 -178 -493 0
-178 -494 0
-493 -494 0
178 493 494 0
c gate 495 -68 -156 0
-68 -495 0
-156 -495 0
68 156 495 0
c gate 496 -494 -495 0
-494 -496 0
-495 -496 0
494 495 496 0
c gate 497 -177 -496 0
-177 -497 0
-496 -497 0
177 496 497 0
c gate 498 71 159 0
71 -498 0
159 -498 0
-71 -159 498 0
c gate 499 72 160 0
72 -499 0
160 -499 0
-72 -160 499 0
c gate 500 -498 -499 0
-498 -500 0
-499 -500 0
498 499 500 0
c gate 501 -72 -160 0
-72 -501 0
-160 -501 0
72 160 501 0
c gate 502 -69 -157 0
-69 -502 0
-157 -502 0
69 157 502 0
c gate 503 -501 -502 0
-501 -503 0
-502 -503 0
501 502 503 0
c gate 504 500 503 0
500 -504 0
503 -504 0
-500 -503 504 0
c gate 505 69 157 0
69 -505 0
157 -505 0
-69 -157 505 0
c gate 506 70 158 0
70 -506 0
158 -506 0
-70 -158 506 0
c gate 507 -505 -506 0
-505 -507 0
-506 -507 0
505 506 507 0
c gate 508 -70 -158 0
-70 -508 0
-158 -508 0
70 158 508 0
c gate 509 -71 -159 0
-71 -509 0
-159 -509 0
71 159 509 0
c gate 510 -508 -509 0
-508 -510 0
-509 -510 0
508 509 510 0
c gate 511 507 510 0
507 -511 0
510 -511 0
-507 -510 511 0
c gate 512 504 511 0
504 -512 0
511 -512 0
-504 -511 512 0
c gate 513 -497 512 0
-497 -513 0
512 -513 0
497 -512 513 0
c gate 514 201 474 0
201 -514 0
474 -514 0
-201 -474 514 0
c gate 515 -188 -514 0
-188 -515 0
-514 -515 0
188 514 515 0
c gate 516 478 -515 0
478 -516 0
-515 -516 0
-478 515 516 0
c gate 517 -183 -516 0
-183 -517 0
-516 -517 0
183 516 517 0
c gate 518 -486 517 0
-486 -518 0
517 -518 0
486 -517 518 0
c gate 519 484 -487 0
484 -519 0
-487 -519 0
-484 487 519 0
c gate 520 -518 519 0
-518 -520 0
519 -520 0
518 -519 520 0
c gate 521 -178 -489 0
-178 -521 0
-489 -521 0
178 489 521 0
c gate 522 -520 521 0
-520 -522 0
521 -522 0
520 -521 522 0
c gate 523 -491 -495 0
-491 -523 0
-495 -523 0
491 495 523 0
c gate 524 -522 523 0
-522 -524 0
523 -524 0
522 -523 524 0
c gate 525 -496 -524 0
-496 -525 0
-524 -525 0
496 524 525 0
c gate 526 -494 524 0
-494 -526 0
524 -526 0
494 -524 526 0
c gate 527 -177 -526 0
-177 -527 0
-526 -527 0
177 526 527 0
c gate 528 -525 527 0
-525 -528 0
527 -528 0
525 -527 528 0
c gate 529 -486 520 0
-486 -529 0
520 -529 0
486 -520 529 0
c gate 530 -516 -529 0
-516 -530 0
-529 -530 0
516 529 530 0
c gate 531 481 -530 0
481 -531 0
-530 -531 0
-481 530 531 0
c gate 532 480 517 0
480 -532 0
517 -532 0
-480 -517 532 0
c gate 533 208 -231 0
208 -533 0
-231 -533 0
-208 231 533 0
c gate 534 -205 -533 0
-205 -534 0
-533 -534 0
205 533 534 0
c gate 535 429 534 0
429 -535 0
534 -535 0
-429 -534 535 0
c gate 536 400 -406 0
400 -536 0
-406 -536 0
-400 406 536 0
c gate 537 303 536 0
303 -537 0
536 -537 0
-303 -536 537 0
c gate 538 396 537 0
396 -538 0
537 -538 0
-396 -537 538 0
c gate 539 -83 -171 0
-83 -539 0
-171 -539 0
83 171 539 0
c gate 540 -80 -168 0
-80 -540 0
-168 -540 0
80 168 540 0
c gate 541 79 167 0
79 -541 0
167 -541 0
-79 -167 541 0
c gate 542 80 168 0
80 -542 0
168 -542 0
-80 -168 542 0
c gate 543 -541 -542 0
-541 -543 0
-542 -543 0
541 542 543 0
c gate 544 -78 -166 0
-78 -544 0
-166 -544 0
78 166 544 0
c gate 545 -79 -167 0
-79 -545 0
-167 -545 0
79 167 545 0
c gate 546 -544 -545 0
-544 -546 0
-545 -546 0
544 545 546 0
c gate 547 77 165 0
77 -547 0
165 -547 0
-77 -165 547 0
c gate 548 78 166 0
78 -548 0
166 -548 0
-78 -166 548 0
c gate 549 -547 -548 0
-547 -549 0
-548 -549 0
547 548 549 0
c gate 550 -75 -163 0
-75 -550 0
-163 -550 0
75 163 550 0
c gate 551 -74 -162 0
-74 -551 0
-162 -551 0
74 162 551 0
c gate 552 -550 -551 0
-550 -552 0
-551 -552 0
550 551 552 0
c gate 553 73 161 0
73 -553 0
161 -553 0
-73 -161 553 0
c gate 554 74 162 0
74 -554 0
162 -554 0
-74 -162 554 0
c gate 555 -553 -554 0
-553 -555 0
-554 -555 0
553 554 555 0
c gate 556 552 -555 0
552 -556 0
-555 -556 0
-552 555 556 0
c gate 557 75 163 0
75 -557 0
163 -557 0
-75 -163 557 0
c gate 558 76 164 0
76 -558 0
164 -558 0
-76 -164 558 0
c gate 559 -557 -558 0
-557 -559 0
-558 -559 0
557 558 559 0
c gate 560 -556 559 0
-556 -560 0
559 -560 0
556 -559 560 0
c gate 561 -76 -164 0
-76 -561 0
-164 -561 0
76 164 561 0
c gate 562 -77 -165 0
-77 -562 0
-165 -562 0
77 165 562 0
c gate 563 -561 -562 0
-561 -563 0
-562 -563 0
561 562 563 0
c gate 564 -560 563 0
-560 -564 0
563 -564 0
560 -563 564 0
c gate 565 549 -564 0
549 -565 0
-564 -565 0
-549 564 565 0
c gate 566 546 -565 0
546 -566 0
-565 -566 0
-546 565 566 0
c gate 567 543 -566 0
543 -567 0
-566 -567 0
-543 566 567 0
c gate 568 -540 -567 0
-540 -568 0
-567 -568 0
540 567 568 0
c gate 569 81 169 0
81 -569 0
169 -569 0
-81 -169 569 0
c gate 570 82 170 0
82 -570 0
170 -570 0
-82 -170 570 0
c gate 571 -569 -570 0
-569 -571 0
-570 -571 0
569 570 571 0
c gate 572 -82 -170 0
-82 -572 0
-170 -572 0
82 170 572 0
c gate 573 -81 -169 0
-81 -573 0
-169 -573 0
81 169 573 0
c gate 574 -572 -573 0
-572 -574 0
-573 -574 0
572 573 574 0
c gate 575 571 574 0
571 -575 0
574 -575 0
-571 -574 575 0
c gate 576 568 575 0
568 -576 0
575 -576 0
-568 -575 576 0
c gate 577 -571 -572 0
-571 -577 0
-572 -577 0
571 572 577 0
c gate 578 83 171 0
83 -578 0
171 -578 0
-83 -171 578 0
c gate 579 -577 -578 0
-577 -579 0
-578 -579 0
577 578 579 0
c gate 580 -576 579 0
-576 -580 0
579 -580 0
576 -579 580 0
c gate 581 -539 -580 0
-539 -581 0
-580 -581 0
539 580 581 0
c gate 582 84 172 0
84 -582 0
172 -582 0
-84 -172 582 0
c gate 583 -84 -172 0
-84 -583 0
-172 -583 0
84 172 583 0
c gate 584 -582 -583 0
-582 -584 0
-583 -584 0
582 583 584 0
c gate 585 -581 584 0
-581 -585 0
584 -585 0
581 -584 585 0
c gate 586 86 174 0
86 -586 0
174 -586 0
-86 -174 586 0
c gate 587 85 173 0
85 -587 0
173 -587 0
-85 -173 587 0
c gate 588 -86 -174 0
-86 -588 0
-174 -588 0
86 174 588 0
c gate 589 -587 -588 0
-587 -589 0
-588 -589 0
587 588 589 0
c gate 590 -586 589 0
-586 -590 0
589 -590 0
586 -589 590 0
c gate 591 87 -175 0
87 -591 0
-175 -591 0
-87 175 591 0
c gate 592 -87 175 0
-87 -592 0
175 -592 0
87 -175 592 0
c gate 593 -591 -592 0
-591 -593 0
-592 -593 0
591 592 593 0
c gate 594 88 176 0
88 -594 0
176 -594 0
-88 -176 594 0
c gate 595 -583 -594 0
-583 -595 0
-594 -595 0
583 594 595 0
c gate 596 -88 -176 0
-88 -596 0
-176 -596 0
88 176 596 0
c gate 597 -85 -173 0
-85 -597 0
-173 -597 0
85 173 597 0
c gate 598 -596 -597 0
-596 -598 0
-597 -598 0
596 597 598 0
c gate 599 595 598 0
595 -599 0
598 -599 0
-595 -598 599 0
c gate 600 -593 599 0
-593 -600 0
599 -600 0
593 -599 600 0
c gate 601 590 600 0
590 -601 0
600 -601 0
-590 -600 601 0
c gate 602 -585 -601 0
-585 -602 0
-601 -602 0
585 601 602 0
c gate 603 543 546 0
543 -603 0
546 -603 0
-543 -546 603 0
c gate 604 563 603 0
563 -604 0
603 -604 0
-563 -603 604 0
c gate 605 -73 -161 0
-73 -605 0
-161 -605 0
73 161 605 0
c gate 606 -501 -540 0
-501 -606 0
-540 -606 0
501 540 606 0
c gate 607 -605 606 0
-605 -607 0
606 -607 0
605 -606 607 0
c gate 608 549 552 0
549 -608 0
552 -608 0
-549 -552 608 0
c gate 609 607 608 0
607 -609 0
608 -609 0
-607 -608 609 0
c gate 610 604 609 0
604 -610 0
609 -610 0
-604 -609 610 0
c gate 611 -507 510 0
-507 -611 0
510 -611 0
507 -510 611 0
c gate 612 500 -611 0
500 -612 0
-611 -612 0
-500 611 612 0
c gate 613 560 -612 0
560 -613 0
-612 -613 0
-560 612 613 0
c gate 614 610 613 0
610 -614 0
613 -614 0
-610 -613 614 0
c gate 615 -568 -614 0
-568 -615 0
-614 -615 0
568 614 615 0
c gate 616 575 -615 0
575 -616 0
-615 -616 0
-575 615 616 0
c gate 617 -577 -616 0
-577 -617 0
-616 -617 0
577 616 617 0
c gate 618 -539 -617 0
-539 -618 0
-617 -618 0
539 617 618 0
c gate 619 -578 -582 0
-578 -619 0
-582 -619 0
578 582 619 0
c gate 620 -618 619 0
-618 -620 0
619 -620 0
618 -619 620 0
c gate 621 -602 -620 0
-602 -621 0
-620 -621 0
602 620 621 0
c gate 622 309 -331 0
309 -622 0
-331 -622 0
-309 331 622 0
c gate 623 306 -622 0
306 -623 0
-622 -623 0
-306 622 623 0
c gate 624 -372 -623 0
-372 -624 0
-623 -624 0
372 623 624 0
c gate 625 267 -624 0
267 -625 0
-624 -625 0
-267 624 625 0
c gate 626 -276 382 0
-276 -626 0
382 -626 0
276 -382 626 0
c gate 627 -625 -626 0
-625 -627 0
-626 -627 0
625 626 627 0
c gate 628 375 -627 0
375 -628 0
-627 -628 0
-375 627 628 0
c gate 629 -372 623 0
-372 -629 0
623 -629 0
372 -623 629 0
c gate 630 369 629 0
369 -630 0
629 -630 0
-369 -629 630 0
c gate 631 204 -464 0
204 -631 0
-464 -631 0
-204 464 631 0
c gate 632 461 631 0
461 -632 0
631 -632 0
-461 -631 632 0
c gate 633 447 632 0
447 -633 0
632 -633 0
-447 -632 633 0
c gate 634 457 633 0
457 -634 0
633 -634 0
-457 -633 634 0
c gate 635 -534 634 0
-534 -635 0
634 -635 0
534 -634 635 0
c gate 636 -614 -635 0
-614 -636 0
-635 -636 0
614 635 636 0
c gate 637 -630 636 0
-630 -637 0
636 -637 0
630 -636 637 0
c gate 638 -628 637 0
-628 -638 0
637 -638 0
628 -637 638 0
c gate 639 -621 638 0
-621 -639 0
638 -639 0
621 -638 639 0
c gate 640 -538 639 0
-538 -640 0
639 -640 0
538 -639 640 0
c gate 641 -535 640 0
-535 -641 0
640 -641 0
535 -640 641 0
c gate 642 -532 641 0
-532 -642 0
641 -642 0
532 -641 642 0
c gate 643 -531 642 0
-531 -643 0
642 -643 0
531 -642 643 0
c gate 644 -528 643 0
-528 -644 0
643 -644 0
528 -643 644 0
c gate 645 -513 644 0
-513 -645 0
644 -645 0
513 -644 645 0
c PO
-645 0
